# Solution for model FSG
# Objective value = 4.2954729441247555e+03
x_0_1 1
x_0_2 0
x_0_3 1
x_0_4 0
x_0_5 0
x_0_6 1
x_0_7 0
x_0_8 0
x_0_9 0
x_0_10 0
x_0_11 0
x_0_12 0
x_1_2 1
x_1_3 0
x_1_4 0
x_1_5 0
x_1_6 0
x_1_7 0
x_1_8 0
x_1_9 0
x_1_10 0
x_1_11 0
x_1_12 0
x_2_1 0
x_2_3 0
x_2_4 0
x_2_5 1
x_2_6 0
x_2_7 0
x_2_8 0
x_2_9 0
x_2_10 0
x_2_11 0
x_2_12 0
x_3_1 0
x_3_2 0
x_3_4 0
x_3_5 0
x_3_6 0
x_3_7 0
x_3_8 1
x_3_9 0
x_3_10 0
x_3_11 0
x_3_12 0
x_4_1 0
x_4_2 0
x_4_3 0
x_4_5 0
x_4_6 0
x_4_7 0
x_4_8 0
x_4_9 0
x_4_10 0
x_4_11 1
x_4_12 0
x_5_1 0
x_5_2 0
x_5_3 0
x_5_4 0
x_5_6 0
x_5_7 0
x_5_8 0
x_5_9 0
x_5_10 1
x_5_11 0
x_5_12 0
x_6_1 0
x_6_2 0
x_6_3 0
x_6_4 0
x_6_5 0
x_6_7 0
x_6_8 0
x_6_9 1
x_6_10 0
x_6_11 0
x_6_12 0
x_7_1 0
x_7_2 0
x_7_3 0
x_7_4 0
x_7_5 0
x_7_6 0
x_7_8 0
x_7_9 0
x_7_10 0
x_7_11 0
x_7_12 1
x_8_1 0
x_8_2 0
x_8_3 0
x_8_4 0
x_8_5 0
x_8_6 0
x_8_7 1
x_8_9 0
x_8_10 0
x_8_11 0
x_8_12 0
x_9_1 0
x_9_2 0
x_9_3 0
x_9_4 1
x_9_5 0
x_9_6 0
x_9_7 0
x_9_8 0
x_9_10 0
x_9_11 0
x_9_12 0
U_1_1 1
U_1_2 0
U_1_3 0
U_2_1 0
U_2_2 1
U_2_3 0
U_3_1 1
U_3_2 0
U_3_3 0
U_4_1 0
U_4_2 0
U_4_3 1
U_5_1 0
U_5_2 1
U_5_3 0
U_6_1 1
U_6_2 0
U_6_3 0
U_7_1 0
U_7_2 1
U_7_3 0
U_8_1 0
U_8_2 1
U_8_3 0
U_9_1 0
U_9_2 1
U_9_3 0
U_10_1 0
U_10_2 0
U_10_3 1
U_11_1 0
U_11_2 0
U_11_3 1
U_12_1 0
U_12_2 0
U_12_3 1
TBar_0 0
TBar_1 3.8337970733986424e+00
TBar_2 1.3419268927709549e+01
TBar_3 3.1595321797409213e+00
TBar_4 2.5246538103655421e+01
TBar_5 20
TBar_6 9.4956661029508638e+00
TBar_7 1.4024608799417397e+01
TBar_8 10
TBar_9 1.6448492866217730e+01
TBar_10 2.5854271944486349e+01
TBar_11 30
TBar_12 20
y_0_1_1 0
y_0_1_2 0
y_0_1_3 0
y_0_1_4 0
y_0_1_5 0
y_0_2_1 0
y_0_2_2 0
y_0_2_3 0
y_0_2_4 0
y_0_2_5 0
y_0_3_1 0
y_0_3_2 0
y_0_3_3 0
y_0_3_4 0
y_0_3_5 0
y_0_4_1 0
y_0_4_2 0
y_0_4_3 0
y_0_4_4 0
y_0_4_5 0
y_0_5_1 0
y_0_5_2 0
y_0_5_3 0
y_0_5_4 0
y_0_5_5 0
y_0_6_1 0
y_0_6_2 0
y_0_6_3 0
y_0_6_4 0
y_0_6_5 0
y_0_7_1 0
y_0_7_2 0
y_0_7_3 0
y_0_7_4 0
y_0_7_5 0
y_0_8_1 0
y_0_8_2 0
y_0_8_3 0
y_0_8_4 0
y_0_8_5 0
y_0_9_1 0
y_0_9_2 0
y_0_9_3 0
y_0_9_4 0
y_0_9_5 0
y_0_10_1 0
y_0_10_2 0
y_0_10_3 0
y_0_10_4 0
y_0_10_5 0
y_0_11_1 0
y_0_11_2 0
y_0_11_3 0
y_0_11_4 0
y_0_11_5 0
y_0_12_1 0
y_0_12_2 0
y_0_12_3 0
y_0_12_4 0
y_0_12_5 0
y_1_2_1 0
y_1_2_2 0
y_1_2_3 0
y_1_2_4 0
y_1_2_5 0
y_1_3_1 0
y_1_3_2 0
y_1_3_3 0
y_1_3_4 0
y_1_3_5 0
y_1_4_1 0
y_1_4_2 0
y_1_4_3 0
y_1_4_4 0
y_1_4_5 0
y_1_5_1 0
y_1_5_2 0
y_1_5_3 0
y_1_5_4 0
y_1_5_5 0
y_1_6_1 0
y_1_6_2 0
y_1_6_3 0
y_1_6_4 0
y_1_6_5 0
y_1_7_1 0
y_1_7_2 0
y_1_7_3 0
y_1_7_4 0
y_1_7_5 0
y_1_8_1 0
y_1_8_2 0
y_1_8_3 0
y_1_8_4 0
y_1_8_5 0
y_1_9_1 0
y_1_9_2 0
y_1_9_3 0
y_1_9_4 0
y_1_9_5 0
y_1_10_1 0
y_1_10_2 0
y_1_10_3 0
y_1_10_4 0
y_1_10_5 0
y_1_11_1 0
y_1_11_2 0
y_1_11_3 0
y_1_11_4 0
y_1_11_5 0
y_1_12_1 0
y_1_12_2 0
y_1_12_3 0
y_1_12_4 0
y_1_12_5 0
y_2_1_1 0
y_2_1_2 0
y_2_1_3 0
y_2_1_4 0
y_2_1_5 0
y_2_3_1 0
y_2_3_2 0
y_2_3_3 0
y_2_3_4 0
y_2_3_5 0
y_2_4_1 0
y_2_4_2 0
y_2_4_3 0
y_2_4_4 0
y_2_4_5 0
y_2_5_1 1
y_2_5_2 1
y_2_5_3 1
y_2_5_4 1
y_2_5_5 1
y_2_6_1 0
y_2_6_2 0
y_2_6_3 0
y_2_6_4 0
y_2_6_5 0
y_2_7_1 0
y_2_7_2 0
y_2_7_3 0
y_2_7_4 0
y_2_7_5 0
y_2_8_1 0
y_2_8_2 0
y_2_8_3 0
y_2_8_4 0
y_2_8_5 0
y_2_9_1 0
y_2_9_2 0
y_2_9_3 0
y_2_9_4 0
y_2_9_5 0
y_2_10_1 0
y_2_10_2 0
y_2_10_3 0
y_2_10_4 0
y_2_10_5 0
y_2_11_1 0
y_2_11_2 0
y_2_11_3 0
y_2_11_4 0
y_2_11_5 0
y_2_12_1 0
y_2_12_2 0
y_2_12_3 0
y_2_12_4 0
y_2_12_5 0
y_3_1_1 0
y_3_1_2 0
y_3_1_3 0
y_3_1_4 0
y_3_1_5 0
y_3_2_1 0
y_3_2_2 0
y_3_2_3 0
y_3_2_4 0
y_3_2_5 0
y_3_4_1 0
y_3_4_2 0
y_3_4_3 0
y_3_4_4 0
y_3_4_5 0
y_3_5_1 0
y_3_5_2 0
y_3_5_3 0
y_3_5_4 0
y_3_5_5 0
y_3_6_1 0
y_3_6_2 0
y_3_6_3 0
y_3_6_4 0
y_3_6_5 0
y_3_7_1 0
y_3_7_2 0
y_3_7_3 0
y_3_7_4 0
y_3_7_5 0
y_3_8_1 0
y_3_8_2 0
y_3_8_3 0
y_3_8_4 0
y_3_8_5 0
y_3_9_1 0
y_3_9_2 0
y_3_9_3 0
y_3_9_4 0
y_3_9_5 0
y_3_10_1 0
y_3_10_2 0
y_3_10_3 0
y_3_10_4 0
y_3_10_5 0
y_3_11_1 0
y_3_11_2 0
y_3_11_3 0
y_3_11_4 0
y_3_11_5 0
y_3_12_1 0
y_3_12_2 0
y_3_12_3 0
y_3_12_4 0
y_3_12_5 0
y_4_1_1 0
y_4_1_2 0
y_4_1_3 0
y_4_1_4 0
y_4_1_5 0
y_4_2_1 0
y_4_2_2 0
y_4_2_3 0
y_4_2_4 0
y_4_2_5 0
y_4_3_1 0
y_4_3_2 0
y_4_3_3 0
y_4_3_4 0
y_4_3_5 0
y_4_5_1 0
y_4_5_2 0
y_4_5_3 0
y_4_5_4 0
y_4_5_5 0
y_4_6_1 0
y_4_6_2 0
y_4_6_3 0
y_4_6_4 0
y_4_6_5 0
y_4_7_1 0
y_4_7_2 0
y_4_7_3 0
y_4_7_4 0
y_4_7_5 0
y_4_8_1 0
y_4_8_2 0
y_4_8_3 0
y_4_8_4 0
y_4_8_5 0
y_4_9_1 0
y_4_9_2 0
y_4_9_3 0
y_4_9_4 0
y_4_9_5 0
y_4_10_1 0
y_4_10_2 0
y_4_10_3 0
y_4_10_4 0
y_4_10_5 0
y_4_11_1 1
y_4_11_2 1
y_4_11_3 1
y_4_11_4 1
y_4_11_5 1
y_4_12_1 0
y_4_12_2 0
y_4_12_3 0
y_4_12_4 0
y_4_12_5 0
y_5_1_1 0
y_5_1_2 0
y_5_1_3 0
y_5_1_4 0
y_5_1_5 0
y_5_2_1 0
y_5_2_2 0
y_5_2_3 0
y_5_2_4 0
y_5_2_5 0
y_5_3_1 0
y_5_3_2 0
y_5_3_3 0
y_5_3_4 0
y_5_3_5 0
y_5_4_1 0
y_5_4_2 0
y_5_4_3 0
y_5_4_4 0
y_5_4_5 0
y_5_6_1 0
y_5_6_2 0
y_5_6_3 0
y_5_6_4 0
y_5_6_5 0
y_5_7_1 0
y_5_7_2 0
y_5_7_3 0
y_5_7_4 0
y_5_7_5 0
y_5_8_1 0
y_5_8_2 0
y_5_8_3 0
y_5_8_4 0
y_5_8_5 0
y_5_9_1 0
y_5_9_2 0
y_5_9_3 0
y_5_9_4 0
y_5_9_5 0
y_5_10_1 1
y_5_10_2 1
y_5_10_3 1
y_5_10_4 1
y_5_10_5 1
y_5_11_1 0
y_5_11_2 0
y_5_11_3 0
y_5_11_4 0
y_5_11_5 0
y_5_12_1 0
y_5_12_2 0
y_5_12_3 0
y_5_12_4 0
y_5_12_5 0
y_6_1_1 0
y_6_1_2 0
y_6_1_3 0
y_6_1_4 0
y_6_1_5 0
y_6_2_1 0
y_6_2_2 0
y_6_2_3 0
y_6_2_4 0
y_6_2_5 0
y_6_3_1 0
y_6_3_2 0
y_6_3_3 0
y_6_3_4 0
y_6_3_5 0
y_6_4_1 0
y_6_4_2 0
y_6_4_3 0
y_6_4_4 0
y_6_4_5 0
y_6_5_1 0
y_6_5_2 0
y_6_5_3 0
y_6_5_4 0
y_6_5_5 0
y_6_7_1 0
y_6_7_2 0
y_6_7_3 0
y_6_7_4 0
y_6_7_5 0
y_6_8_1 0
y_6_8_2 0
y_6_8_3 0
y_6_8_4 0
y_6_8_5 0
y_6_9_1 0
y_6_9_2 0
y_6_9_3 0
y_6_9_4 0
y_6_9_5 0
y_6_10_1 0
y_6_10_2 0
y_6_10_3 0
y_6_10_4 0
y_6_10_5 0
y_6_11_1 0
y_6_11_2 0
y_6_11_3 0
y_6_11_4 0
y_6_11_5 0
y_6_12_1 0
y_6_12_2 0
y_6_12_3 0
y_6_12_4 0
y_6_12_5 0
y_7_1_1 0
y_7_1_2 0
y_7_1_3 0
y_7_1_4 0
y_7_1_5 0
y_7_2_1 0
y_7_2_2 0
y_7_2_3 0
y_7_2_4 0
y_7_2_5 0
y_7_3_1 0
y_7_3_2 0
y_7_3_3 0
y_7_3_4 0
y_7_3_5 0
y_7_4_1 0
y_7_4_2 0
y_7_4_3 0
y_7_4_4 0
y_7_4_5 0
y_7_5_1 0
y_7_5_2 0
y_7_5_3 0
y_7_5_4 0
y_7_5_5 0
y_7_6_1 0
y_7_6_2 0
y_7_6_3 0
y_7_6_4 0
y_7_6_5 0
y_7_8_1 0
y_7_8_2 0
y_7_8_3 0
y_7_8_4 0
y_7_8_5 0
y_7_9_1 0
y_7_9_2 0
y_7_9_3 0
y_7_9_4 0
y_7_9_5 0
y_7_10_1 0
y_7_10_2 0
y_7_10_3 0
y_7_10_4 0
y_7_10_5 0
y_7_11_1 0
y_7_11_2 0
y_7_11_3 0
y_7_11_4 0
y_7_11_5 0
y_7_12_1 1
y_7_12_2 1
y_7_12_3 1
y_7_12_4 1
y_7_12_5 1
y_8_1_1 0
y_8_1_2 0
y_8_1_3 0
y_8_1_4 0
y_8_1_5 0
y_8_2_1 0
y_8_2_2 0
y_8_2_3 0
y_8_2_4 0
y_8_2_5 0
y_8_3_1 0
y_8_3_2 0
y_8_3_3 0
y_8_3_4 0
y_8_3_5 0
y_8_4_1 0
y_8_4_2 0
y_8_4_3 0
y_8_4_4 0
y_8_4_5 0
y_8_5_1 0
y_8_5_2 0
y_8_5_3 0
y_8_5_4 0
y_8_5_5 0
y_8_6_1 0
y_8_6_2 0
y_8_6_3 0
y_8_6_4 0
y_8_6_5 0
y_8_7_1 1
y_8_7_2 1
y_8_7_3 1
y_8_7_4 1
y_8_7_5 1
y_8_9_1 0
y_8_9_2 0
y_8_9_3 0
y_8_9_4 0
y_8_9_5 0
y_8_10_1 0
y_8_10_2 0
y_8_10_3 0
y_8_10_4 0
y_8_10_5 0
y_8_11_1 0
y_8_11_2 0
y_8_11_3 0
y_8_11_4 0
y_8_11_5 0
y_8_12_1 0
y_8_12_2 0
y_8_12_3 0
y_8_12_4 0
y_8_12_5 0
y_9_1_1 0
y_9_1_2 0
y_9_1_3 0
y_9_1_4 0
y_9_1_5 0
y_9_2_1 0
y_9_2_2 0
y_9_2_3 0
y_9_2_4 0
y_9_2_5 0
y_9_3_1 0
y_9_3_2 0
y_9_3_3 0
y_9_3_4 0
y_9_3_5 0
y_9_4_1 1
y_9_4_2 0
y_9_4_3 0
y_9_4_4 0
y_9_4_5 1
y_9_5_1 0
y_9_5_2 0
y_9_5_3 0
y_9_5_4 0
y_9_5_5 0
y_9_6_1 0
y_9_6_2 0
y_9_6_3 0
y_9_6_4 0
y_9_6_5 0
y_9_7_1 0
y_9_7_2 0
y_9_7_3 0
y_9_7_4 0
y_9_7_5 0
y_9_8_1 0
y_9_8_2 0
y_9_8_3 0
y_9_8_4 0
y_9_8_5 0
y_9_10_1 0
y_9_10_2 0
y_9_10_3 0
y_9_10_4 0
y_9_10_5 0
y_9_11_1 0
y_9_11_2 0
y_9_11_3 0
y_9_11_4 0
y_9_11_5 0
y_9_12_1 0
y_9_12_2 0
y_9_12_3 0
y_9_12_4 0
y_9_12_5 0
Q_0_1 0
Q_0_2 0
Q_0_3 0
Q_0_4 0
Q_0_5 0
Q_1_1 70.1200000000008
Q_1_2 64.05
Q_1_3 65.2200000000008
Q_1_4 68.3900000000008
Q_1_5 69.4400000000008
Q_2_1 1.8246500000000137e+02
Q_2_2 1.7464000000000141e+02
Q_2_3 1.7287000000000137e+02
Q_2_4 1.7861500000000137e+02
Q_2_5 1.7890500000000139e+02
Q_3_1 7.9830000000000368e+01
Q_3_2 8.2730000000000359e+01
Q_3_3 81
Q_3_4 8.2275000000000361e+01
Q_3_5 8.1955000000000368e+01
Q_4_1 171.21
Q_4_2 157.6
Q_4_3 1.4267999999999998e+02
Q_4_4 143.22
Q_4_5 1.5782000000000002e+02
Q_5_1 237.015000000001
Q_5_2 2.3074000000000103e+02
Q_5_3 2.1750500000000102e+02
Q_5_4 225.705000000001
Q_5_5 237.135000000001
Q_6_1 5.3029999999999859e+01
Q_6_2 4.6719999999999857e+01
Q_6_3 43.5
Q_6_4 4.3859999999999857e+01
Q_6_5 4.5109999999999857e+01
Q_7_1 2.5279500000000016e+02
Q_7_2 2.4721000000000015e+02
Q_7_3 2.5651000000000016e+02
Q_7_4 2.6022000000000014e+02
Q_7_5 252
Q_8_1 1.3271000000000103e+02
Q_8_2 1.3414000000000104e+02
Q_8_3 141.95
Q_8_4 142.185000000001
Q_8_5 137
Q_9_1 1.1533499999999921e+02
Q_9_2 99.3799999999992
Q_9_3 95.1249999999992
Q_9_4 94.7849999999992
Q_9_5 107.35
Q_10_1 237.015000000001
Q_10_2 2.3074000000000103e+02
Q_10_3 2.1750500000000102e+02
Q_10_4 225.705000000001
Q_10_5 237.135000000001
Q_11_1 171.21
Q_11_2 157.6
Q_11_3 1.4267999999999998e+02
Q_11_4 143.22
Q_11_5 1.5782000000000002e+02
Q_12_1 2.5279500000000016e+02
Q_12_2 2.4721000000000015e+02
Q_12_3 2.5651000000000016e+02
Q_12_4 2.6022000000000014e+02
Q_12_5 252
R_10_1 137.015000000001
R_10_2 1.3074000000000103e+02
R_10_3 1.1750500000000102e+02
R_10_4 1.2570500000000101e+02
R_10_5 137.135000000001
R_11_1 7.1210000000000008e+01
R_11_2 57.6
R_11_3 4.2679999999999978e+01
R_11_4 43.22
R_11_5 5.7820000000000022e+01
R_12_1 1.5279500000000016e+02
R_12_2 1.4721000000000015e+02
R_12_3 1.5651000000000016e+02
R_12_4 1.6022000000000014e+02
R_12_5 152
L_1_1 25.355
L_1_2 24.09
L_1_3 13.675
L_1_4 19.535
L_1_5 24.755
L_2_1 9.31
L_2_2 6.61
L_2_3 8.05
L_2_4 13.13
L_2_5 5.43
L_3_1 15.545
L_3_2 1.5245000000000001e+01
L_3_3 1.2040000000000001e+01
L_3_4 17.035
L_3_5 1.1725000000000001e+01
L_4_1 0
L_4_2 0
L_4_3 0
L_4_4 0
L_4_5 0
L_5_1 3.965
L_5_2 3.455
L_5_3 4.72
L_5_4 3.18
L_5_5 4.41
L_6_1 2.3880000000000003e+01
L_6_2 16.485
L_6_3 14.645
L_6_4 11.73
L_6_5 25.575
L_7_1 14.88
L_7_2 9.78
L_7_3 7.42
L_7_4 9.11
L_7_5 5.37
L_8_1 6.85
L_8_2 3.21
L_8_3 2.755
L_8_4 7.14
L_8_5 5.325
L_9_1 7
L_9_2 7.125
L_9_3 4.185
L_9_4 5.785
L_9_5 6.5
rho_1_1 0
rho_1_2 0
rho_1_3 0
rho_1_4 0
rho_1_5 0
rho_2_1 1
rho_2_2 1
rho_2_3 1
rho_2_4 1
rho_2_5 1
rho_3_1 0
rho_3_2 0
rho_3_3 0
rho_3_4 0
rho_3_5 0
rho_4_1 1
rho_4_2 1
rho_4_3 1
rho_4_4 1
rho_4_5 1
rho_5_1 1
rho_5_2 1
rho_5_3 1
rho_5_4 1
rho_5_5 1
rho_6_1 0
rho_6_2 0
rho_6_3 0
rho_6_4 0
rho_6_5 0
rho_7_1 1
rho_7_2 1
rho_7_3 1
rho_7_4 1
rho_7_5 1
rho_8_1 1
rho_8_2 1
rho_8_3 1
rho_8_4 1
rho_8_5 1
rho_9_1 1
rho_9_2 0
rho_9_3 0
rho_9_4 0
rho_9_5 1
lambd_1_1 0
lambd_1_2 0
lambd_1_3 0
lambd_1_4 0
lambd_1_5 0
lambd_2_1 0
lambd_2_2 0
lambd_2_3 0
lambd_2_4 0
lambd_2_5 0
lambd_3_1 0
lambd_3_2 0
lambd_3_3 0
lambd_3_4 0
lambd_3_5 0
lambd_4_1 0
lambd_4_2 0
lambd_4_3 0
lambd_4_4 0
lambd_4_5 0
lambd_5_1 0
lambd_5_2 0
lambd_5_3 0
lambd_5_4 0
lambd_5_5 0
lambd_6_1 0
lambd_6_2 0
lambd_6_3 0
lambd_6_4 0
lambd_6_5 0
lambd_7_1 0
lambd_7_2 0
lambd_7_3 0
lambd_7_4 0
lambd_7_5 0
lambd_8_1 0
lambd_8_2 0
lambd_8_3 0
lambd_8_4 0
lambd_8_5 0
lambd_9_1 0
lambd_9_2 0
lambd_9_3 0
lambd_9_4 0
lambd_9_5 0
alpha_1_1 0
alpha_1_2 0
alpha_1_3 0
alpha_1_4 0
alpha_1_5 0
alpha_2_1 1
alpha_2_2 1
alpha_2_3 1
alpha_2_4 1
alpha_2_5 1
alpha_3_1 0
alpha_3_2 0
alpha_3_3 0
alpha_3_4 0
alpha_3_5 0
alpha_4_1 0
alpha_4_2 1
alpha_4_3 1
alpha_4_4 1
alpha_4_5 0
alpha_5_1 0
alpha_5_2 0
alpha_5_3 0
alpha_5_4 0
alpha_5_5 0
alpha_6_1 0
alpha_6_2 0
alpha_6_3 0
alpha_6_4 0
alpha_6_5 0
alpha_7_1 0
alpha_7_2 0
alpha_7_3 0
alpha_7_4 0
alpha_7_5 0
alpha_8_1 1
alpha_8_2 1
alpha_8_3 1
alpha_8_4 1
alpha_8_5 1
alpha_9_1 1
alpha_9_2 0
alpha_9_3 0
alpha_9_4 0
alpha_9_5 1
